c Reduced graph for GEOM40b generated by Cyril Grelier
p edge 37 147
e 1 2
e 1 5
e 1 14
e 1 16
e 1 22
e 1 25
e 1 26
e 1 28
e 1 29
e 1 31
e 1 32
e 2 14
e 2 16
e 2 22
e 2 25
e 2 28
e 2 29
e 2 30
e 2 31
e 2 32
e 3 5
e 3 7
e 3 10
e 3 11
e 3 15
e 3 17
e 3 20
e 3 24
e 3 29
e 4 7
e 4 10
e 4 15
e 4 17
e 4 20
e 4 21
e 4 34
e 4 37
e 5 11
e 5 22
e 5 24
e 5 26
e 5 29
e 5 31
e 6 9
e 6 18
e 6 19
e 6 23
e 6 27
e 6 33
e 6 35
e 6 36
e 7 10
e 7 11
e 7 15
e 7 17
e 7 20
e 7 24
e 8 12
e 8 21
e 8 27
e 8 33
e 8 34
e 8 36
e 8 37
e 9 13
e 9 18
e 9 19
e 9 23
e 9 33
e 9 35
e 10 11
e 10 20
e 10 24
e 11 24
e 11 26
e 12 21
e 12 27
e 12 36
e 12 37
e 13 16
e 13 18
e 13 19
e 13 23
e 14 25
e 14 28
e 15 17
e 15 20
e 15 21
e 15 29
e 15 30
e 15 32
e 15 34
e 16 18
e 16 19
e 16 25
e 16 29
e 16 30
e 16 31
e 16 32
e 17 20
e 17 21
e 17 29
e 17 30
e 17 32
e 17 34
e 18 19
e 18 23
e 18 30
e 18 32
e 18 33
e 18 35
e 19 23
e 19 30
e 19 33
e 19 35
e 20 24
e 20 29
e 20 34
e 21 27
e 21 34
e 21 37
e 22 25
e 22 26
e 22 29
e 22 31
e 22 32
e 23 30
e 23 33
e 23 35
e 24 26
e 25 28
e 25 31
e 26 29
e 26 31
e 27 33
e 27 34
e 27 36
e 29 30
e 29 31
e 29 32
e 30 31
e 30 32
e 31 32
e 33 35
e 33 36
e 34 37
e 35 36
